<number of tasks>
20


<number of equipment>
5


<cycle time>
1000


<investment costs>
1,6619
2,9210
3,13736
4,15799
5,21309


<task times>
1,-1,219,196,-1,125
2,292,-1,166,-1,-1
3,-1,266,290,-1,151
4,-1,227,201,-1,104
5,-1,193,203,-1,141
6,227,-1,202,-1,-1
7,244,-1,215,-1,-1
8,-1,255,160,-1,126
9,-1,-1,239,212,183
10,-1,246,186,-1,129
11,-1,124,147,-1,126
12,-1,-1,215,173,134
13,-1,201,191,-1,149
14,-1,255,198,-1,133
15,-1,-1,169,129,118
16,-1,227,209,-1,151
17,-1,-1,272,199,246
18,-1,-1,206,190,116
19,-1,-1,188,170,133
20,-1,-1,156,190,102


<precedence relations>
4,8
5,6
5,7
6,10
8,9
8,11
8,12
8,13
9,15
9,16
10,14
11,17
14,18
16,19
16,20


<task types>
1,3
2,1
3,3
4,3
5,3
6,1
7,1
8,3
9,2
10,3
11,3
12,2
13,3
14,3
15,2
16,3
17,2
18,2
19,2
20,2


<line depot>
1,1
2,1
3,4
4,0
5,0


<processing costs>
1,7200
2,7200
3,21600
4,7200
5,14400


<saving costs>
1,661
2,921
3,1373
4,1579
5,2130


<end>
